(declare-const __VERIFIER_assert__cond___7 Int)
(declare-const __VERIFIER_assert__cond___3 Int)
(declare-const |phi___tmp_259_0:404:517:733| Int)
(declare-const __VERIFIER_assert__cond___18 Int)
(declare-const |__VERIFIER_assert__cond___7':367:383:616:754| Int)
(declare-const havoc Int)
(declare-const |main__t':147:167:174:227:530:746| Int)
(declare-const |havoc:35:66:353:721:763| Int)
(declare-const __VERIFIER_assert__cond___15 Int)
(declare-const |K:381:382:615:753| Int)
(declare-const |phi___VERIFIER_assert__cond___3:350:359:727:769| Int)
(declare-const |phi_main____CPAchecker_TMP_0___0:397:524:740| Int)
(declare-const |main____CPAchecker_TMP_4':364:389:622:760| Int)
(declare-const |__VERIFIER_assert__cond___3':365:388:621:759| Int)
(declare-const |phi___VERIFIER_assert__cond___0:400:521:737| Int)
(declare-const __VERIFIER_assert__cond___8 Int)
(declare-const |main__t':147:385:618:756| Int)
(declare-const __VERIFIER_assert__cond___11 Int)
(declare-const |phi___VERIFIER_assert__cond___15:396:525:741| Int)
(declare-const |phi___VERIFIER_assert__cond___17:394:527:743| Int)
(declare-const |phi_main____CPAchecker_TMP_6:348:361:729:771| Int)
(declare-const |__VERIFIER_assert__cond___18':151:171:178:231:534:750| Int)
(declare-const |phi___VERIFIER_assert__cond___18:393:528:744| Int)
(declare-const |phi___VERIFIER_assert__cond___4:349:360:728:770| Int)
(declare-const |phi___VERIFIER_assert__cond___4:342:347:356:724:766| Int)
(declare-const |__VERIFIER_assert__cond___17':150:168:175:228:531:747| Int)
(declare-const |main____CPAchecker_TMP_6':369:386:619:757| Int)
(declare-const |phi_main____CPAchecker_TMP_0:402:519:735| Int)
(declare-const |phi___VERIFIER_assert__cond:401:520:736| Int)
(declare-const __VERIFIER_assert__cond___4 Int)
(declare-const main____CPAchecker_TMP_4 Int)
(declare-const |phi_main__t:352:357:725:767| Int)
(declare-const __VERIFIER_assert__cond___0 Int)
(declare-const |havoc:3:62:731| Int)
(declare-const |havoc:9:63:145:225:233:536:752| Int)
(declare-const __VERIFIER_assert__cond___12 Int)
(declare-const __VERIFIER_assert__cond Int)
(declare-const main____CPAchecker_TMP_3 Int)
(declare-const main____CPAchecker_TMP_6 Int)
(declare-const |main____CPAchecker_TMP_0___0':149:172:179:232:535:751| Int)
(declare-const |main____CPAchecker_TMP_3':363:390:623:761| Int)
(declare-const |havoc:29:65:362:730:772| Int)
(declare-const __tmp_383_0 Int)
(declare-const |phi___tmp_383_0:405:516:732| Int)
(declare-const |__VERIFIER_assert__cond___8':368:384:617:755| Int)
(declare-const |phi_main__t:344:345:354:722:764| Int)
(declare-const |phi___VERIFIER_assert__cond___16:395:526:742| Int)
(declare-const |__VERIFIER_assert__cond___4':366:387:620:758| Int)
(declare-const main____CPAchecker_TMP_0___0 Int)
(declare-const |phi_main____CPAchecker_TMP_4:351:358:726:768| Int)
(declare-const __VERIFIER_assert__cond___17 Int)
(declare-const |phi___VERIFIER_assert__cond___3:343:346:355:723:765| Int)
(declare-const |havoc:28:64:341:720:762| Int)
(declare-const |main____CPAchecker_TMP_0':148:169:176:229:532:748| Int)
(declare-const |K:165:166:173:226:529:745| Int)
(declare-const __VERIFIER_assert__cond___16 Int)
(declare-const |phi_main__t:403:518:734| Int)
(declare-const |phi___VERIFIER_assert__cond___12:398:523:739| Int)
(declare-const |__tmp_383_0':146:170:177:230:533:749| Int)
(declare-const |phi___VERIFIER_assert__cond___11:399:522:738| Int)
(assert (and (<= (+ (- havoc) 1) 0) (not (= (+ (- havoc) 1) 0))
               (or (and (not (= |havoc:3:62:731| 0))
                          (not (= (ite (<= (+ (- havoc) 1) 0) 1 0) 0))
                          (= (+ (- |phi___tmp_383_0:405:516:732|) __tmp_383_0) 0)
                          (= (+ (- |phi___tmp_259_0:404:517:733|)
                                  |havoc:3:62:731|) 0)
                          (= (- |phi_main__t:403:518:734|) 0)
                          (= (+ (- |phi_main____CPAchecker_TMP_0:402:519:735|)
                                  |havoc:3:62:731|) 0)
                          (= (+ (- |phi___VERIFIER_assert__cond:401:520:736|)
                                  1) 0)
                          (= (+ (- |phi___VERIFIER_assert__cond___0:400:521:737|)
                                  (ite (<= (+ (- havoc) 1) 0) 1 0)) 0)
                          (= (+ (- |phi___VERIFIER_assert__cond___11:399:522:738|)
                                  __VERIFIER_assert__cond___11) 0)
                          (= (+ (- |phi___VERIFIER_assert__cond___12:398:523:739|)
                                  __VERIFIER_assert__cond___12) 0)
                          (= (+ (- |phi_main____CPAchecker_TMP_0___0:397:524:740|)
                                  main____CPAchecker_TMP_0___0) 0)
                          (= (+ (- |phi___VERIFIER_assert__cond___15:396:525:741|)
                                  __VERIFIER_assert__cond___15) 0)
                          (= (+ (- |phi___VERIFIER_assert__cond___16:395:526:742|)
                                  __VERIFIER_assert__cond___16) 0)
                          (= (+ (- |phi___VERIFIER_assert__cond___17:394:527:743|)
                                  __VERIFIER_assert__cond___17) 0)
                          (= (+ (- |phi___VERIFIER_assert__cond___18:393:528:744|)
                                  __VERIFIER_assert__cond___18) 0))
                     (and (= |havoc:3:62:731| 0)
                            (not (= (ite (<= (+ (- havoc) 1) 0) 1 0) 0))
                            (or (not (<= (- |K:165:166:173:226:529:745|) 0))
                                  (= (+ |main__t':147:167:174:227:530:746|
                                          (- |K:165:166:173:226:529:745|)) 0))
                            (or (not (and (<= (- |K:165:166:173:226:529:745|) 0)
                                            (<= |K:165:166:173:226:529:745| 0)))
                                  (= (+ |__VERIFIER_assert__cond___17':150:168:175:228:531:747|
                                          (- __VERIFIER_assert__cond___17)) 0))
                            (or (not (<= (+ (- |K:165:166:173:226:529:745|) 1) 0))
                                  (= (+ |__VERIFIER_assert__cond___17':150:168:175:228:531:747|
                                          -1) 0))
                            (or (not (and (<= (- |K:165:166:173:226:529:745|) 0)
                                            (<= |K:165:166:173:226:529:745| 0)))
                                  (= (+ |main____CPAchecker_TMP_0':148:169:176:229:532:748|
                                          (- |havoc:3:62:731|)) 0))
                            (or (not (<= (+ (- |K:165:166:173:226:529:745|) 1) 0))
                                  (= |main____CPAchecker_TMP_0':148:169:176:229:532:748| 0))
                            (or (not (and (<= (- |K:165:166:173:226:529:745|) 0)
                                            (<= |K:165:166:173:226:529:745| 0)))
                                  (= (+ |__tmp_383_0':146:170:177:230:533:749|
                                          (- |havoc:3:62:731|)) 0))
                            (or (not (<= (+ (- |K:165:166:173:226:529:745|) 1) 0))
                                  (= |__tmp_383_0':146:170:177:230:533:749| 0))
                            (or (not (and (<= (- |K:165:166:173:226:529:745|) 0)
                                            (<= |K:165:166:173:226:529:745| 0)))
                                  (= (+ |__VERIFIER_assert__cond___18':151:171:178:231:534:750|
                                          (- __VERIFIER_assert__cond___18)) 0))
                            (or (not (<= (+ (- |K:165:166:173:226:529:745|) 1) 0))
                                  (= (+ |__VERIFIER_assert__cond___18':151:171:178:231:534:750|
                                          -1) 0))
                            (or (not (and (<= (- |K:165:166:173:226:529:745|) 0)
                                            (<= |K:165:166:173:226:529:745| 0)))
                                  (= (+ |main____CPAchecker_TMP_0___0':149:172:179:232:535:751|
                                          (- main____CPAchecker_TMP_0___0)) 0))
                            (or (not (<= (+ (- |K:165:166:173:226:529:745|) 1) 0))
                                  (= |main____CPAchecker_TMP_0___0':149:172:179:232:535:751| 0))
                            (or (and (= |K:165:166:173:226:529:745| 0)
                                       (= (+ (- |__VERIFIER_assert__cond___18':151:171:178:231:534:750|)
                                               __VERIFIER_assert__cond___18) 0)
                                       (= (+ (- |__VERIFIER_assert__cond___17':150:168:175:228:531:747|)
                                               __VERIFIER_assert__cond___17) 0)
                                       (= (+ (- |main____CPAchecker_TMP_0___0':149:172:179:232:535:751|)
                                               main____CPAchecker_TMP_0___0) 0)
                                       (= (+ (- |main____CPAchecker_TMP_0':148:169:176:229:532:748|)
                                               |havoc:3:62:731|) 0)
                                       (= (- |main__t':147:167:174:227:530:746|) 0)
                                       (= (+ (- |__tmp_383_0':146:170:177:230:533:749|)
                                               |havoc:3:62:731|) 0))
                                  (and (<= (+ (- |K:165:166:173:226:529:745|)
                                                1) 0) (= |havoc:3:62:731| 0)
                                         (= |havoc:3:62:731| 0)
                                         (<= (+ (- havoc) 3) 0)
                                         (= (+ |__VERIFIER_assert__cond___18':151:171:178:231:534:750|
                                                 -1) 0)
                                         (= (+ |__VERIFIER_assert__cond___17':150:168:175:228:531:747|
                                                 -1) 0)
                                         (= |main____CPAchecker_TMP_0':148:169:176:229:532:748| 0)
                                         (= |main____CPAchecker_TMP_0___0':149:172:179:232:535:751| 0)
                                         (= |__tmp_383_0':146:170:177:230:533:749| 0)
                                         (<= (+ |main__t':147:167:174:227:530:746|
                                                  (- havoc) 2) 0)
                                         (<= (+ (- |main__t':147:167:174:227:530:746|)
                                                  1) 0)))
                            (<= (- |K:165:166:173:226:529:745|) 0)
                            (= |__tmp_383_0':146:170:177:230:533:749| 0)
                            (= |main____CPAchecker_TMP_0':148:169:176:229:532:748| 0)
                            (<= (- |main__t':147:167:174:227:530:746|) 0)
                            (< (+ (- havoc) 1) 0)
                            (= |__tmp_383_0':146:170:177:230:533:749| 0)
                            (= |main____CPAchecker_TMP_0':148:169:176:229:532:748| 0)
                            (not (= (+ |main__t':147:167:174:227:530:746|
                                         (- havoc) 2) 0))
                            (not (= |havoc:9:63:145:225:233:536:752| 0))
                            (not (= (ite (<= (+ (- |main__t':147:167:174:227:530:746|)
                                                  -1) 0)
                                         1 0) 0))
                            (not (= (ite (<= (+ |main__t':147:167:174:227:530:746|
                                                  (- havoc) 2) 0)
                                         1 0) 0))
                            (= (+ |__tmp_383_0':146:170:177:230:533:749|
                                    (- |phi___tmp_383_0:405:516:732|)) 0)
                            (= (+ |havoc:9:63:145:225:233:536:752|
                                    (- |phi___tmp_259_0:404:517:733|)) 0)
                            (= (+ |main__t':147:167:174:227:530:746|
                                    (- |phi_main__t:403:518:734|) 1) 0)
                            (= (+ |__tmp_383_0':146:170:177:230:533:749|
                                    (- |phi_main____CPAchecker_TMP_0:402:519:735|)) 0)
                            (= (+ __VERIFIER_assert__cond
                                    (- |phi___VERIFIER_assert__cond:401:520:736|)) 0)
                            (= (+ __VERIFIER_assert__cond___0
                                    (- |phi___VERIFIER_assert__cond___0:400:521:737|)) 0)
                            (= (+ (- |phi___VERIFIER_assert__cond___11:399:522:738|)
                                    1) 0)
                            (= (+ (- |phi___VERIFIER_assert__cond___12:398:523:739|)
                                    (ite (<= (+ (- havoc) 1) 0) 1 0)) 0)
                            (= (+ |havoc:9:63:145:225:233:536:752|
                                    (- |phi_main____CPAchecker_TMP_0___0:397:524:740|)) 0)
                            (= (+ (ite (<= (+ (- |main__t':147:167:174:227:530:746|)
                                                -1) 0)
                                       1 0)
                                    (- |phi___VERIFIER_assert__cond___15:396:525:741|)) 0)
                            (= (+ (ite (<= (+ |main__t':147:167:174:227:530:746|
                                                (- havoc) 2) 0)
                                       1 0)
                                    (- |phi___VERIFIER_assert__cond___16:395:526:742|)) 0)
                            (= (+ |__VERIFIER_assert__cond___17':150:168:175:228:531:747|
                                    (- |phi___VERIFIER_assert__cond___17:394:527:743|)) 0)
                            (= (+ |__VERIFIER_assert__cond___18':151:171:178:231:534:750|
                                    (- |phi___VERIFIER_assert__cond___18:393:528:744|)) 0)))
               (or (not (and (<= (- |K:381:382:615:753|) 0)
                               (<= |K:381:382:615:753| 0)))
                     (= (+ (- __VERIFIER_assert__cond___7)
                             |__VERIFIER_assert__cond___7':367:383:616:754|) 0))
               (or (not (<= (+ (- |K:381:382:615:753|) 1) 0))
                     (= (+ |__VERIFIER_assert__cond___7':367:383:616:754| -1) 0))
               (or (not (and (<= (- |K:381:382:615:753|) 0)
                               (<= |K:381:382:615:753| 0)))
                     (= (+ (- __VERIFIER_assert__cond___8)
                             |__VERIFIER_assert__cond___8':368:384:617:755|) 0))
               (or (not (<= (+ (- |K:381:382:615:753|) 1) 0))
                     (= (+ |__VERIFIER_assert__cond___8':368:384:617:755| -1) 0))
               (or (not (<= (- |K:381:382:615:753|) 0))
                     (<= (+ |main__t':147:385:618:756|
                              (* -2 |K:381:382:615:753|)
                              (- |phi_main__t:403:518:734|) -1) 0))
               (or (not (<= (- |K:381:382:615:753|) 0))
                     (<= (+ |main__t':147:385:618:756|
                              (* 2 |K:381:382:615:753|)
                              (- |phi_main__t:403:518:734|)
                              (- (* |K:381:382:615:753| havoc)) -1) 0))
               (or (not (<= (- |K:381:382:615:753|) 0))
                     (<= (+ (- |main__t':147:385:618:756|)
                              |K:381:382:615:753| |phi_main__t:403:518:734| 1) 0))
               (or (and (= |K:381:382:615:753| 0)
                          (= (+ (- |main____CPAchecker_TMP_6':369:386:619:757|)
                                  main____CPAchecker_TMP_6) 0)
                          (= (+ __VERIFIER_assert__cond___8
                                  (- |__VERIFIER_assert__cond___8':368:384:617:755|)) 0)
                          (= (+ __VERIFIER_assert__cond___7
                                  (- |__VERIFIER_assert__cond___7':367:383:616:754|)) 0)
                          (= (+ (- |__VERIFIER_assert__cond___4':366:387:620:758|)
                                  __VERIFIER_assert__cond___4) 0)
                          (= (+ (- |__VERIFIER_assert__cond___3':365:388:621:759|)
                                  __VERIFIER_assert__cond___3) 0)
                          (= (+ (- |main____CPAchecker_TMP_4':364:389:622:760|)
                                  main____CPAchecker_TMP_4) 0)
                          (= (+ (- |main____CPAchecker_TMP_3':363:390:623:761|)
                                  main____CPAchecker_TMP_3) 0)
                          (= (+ (- |main__t':147:385:618:756|)
                                  |phi_main__t:403:518:734| 1) 0))
                     (and (<= (+ (- |K:381:382:615:753|) 1) 0)
                            (<= (+ |phi_main__t:403:518:734| (- havoc) 3) 0)
                            (<= (- |phi_main__t:403:518:734|) 0)
                            (= (+ |__VERIFIER_assert__cond___8':368:384:617:755|
                                    -1) 0)
                            (= (+ |__VERIFIER_assert__cond___7':367:383:616:754|
                                    -1) 0)
                            (<= (+ |main__t':147:385:618:756| (- havoc) 1) 0)
                            (<= (+ (- |main__t':147:385:618:756|) 2) 0)))
               (<= (- |K:381:382:615:753|) 0)
               (< (- |main__t':147:385:618:756|) 0) (< (+ (- havoc) 1) 0)
               (not (= (+ |main__t':147:385:618:756| (- havoc) 1) 0))
               (or (and (not (= |havoc:28:64:341:720:762| 0))
                          (or (and (= |havoc:35:66:353:721:763| 0)
                                     (= (+ (- |phi_main__t:344:345:354:722:764|)
                                             |main__t':147:385:618:756|) 0)
                                     (= (+ (- |phi___VERIFIER_assert__cond___3:343:346:355:723:765|)
                                             |__VERIFIER_assert__cond___3':365:388:621:759|) 0)
                                     (= (+ (- |phi___VERIFIER_assert__cond___4:342:347:356:724:766|)
                                             |__VERIFIER_assert__cond___4':366:387:620:758|) 0))
                                (and (not (= |havoc:35:66:353:721:763| 0))
                                       (not (= (ite (<= (- |main__t':147:385:618:756|) 0)
                                                    1 0) 0))
                                       (not (= (ite (<= (+ |main__t':147:385:618:756|
                                                             (- havoc) 1) 0)
                                                    1 0) 0))
                                       (not (= (+ |main__t':147:385:618:756|
                                                    (- havoc) 2) 0))
                                       (= (+ (- |phi_main__t:344:345:354:722:764|)
                                               |main__t':147:385:618:756| 1) 0)
                                       (= (+ (ite (<= (- |main__t':147:385:618:756|) 0)
                                                  1 0)
                                               (- |phi___VERIFIER_assert__cond___3:343:346:355:723:765|)) 0)
                                       (= (+ (ite (<= (+ |main__t':147:385:618:756|
                                                           (- havoc) 1) 0)
                                                  1 0)
                                               (- |phi___VERIFIER_assert__cond___4:342:347:356:724:766|)) 0)))
                          (= (+ (- |phi_main__t:352:357:725:767|)
                                  |phi_main__t:344:345:354:722:764|) 0)
                          (= (+ (- |phi_main____CPAchecker_TMP_4:351:358:726:768|)
                                  |havoc:35:66:353:721:763|) 0)
                          (= (+ (- |phi___VERIFIER_assert__cond___3:350:359:727:769|)
                                  |phi___VERIFIER_assert__cond___3:343:346:355:723:765|) 0)
                          (= (+ (- |phi___VERIFIER_assert__cond___4:349:360:728:770|)
                                  |phi___VERIFIER_assert__cond___4:342:347:356:724:766|) 0)
                          (= (+ (- |phi_main____CPAchecker_TMP_6:348:361:729:771|)
                                  |main____CPAchecker_TMP_6':369:386:619:757|) 0))
                     (and (= |havoc:28:64:341:720:762| 0)
                            (= |havoc:29:65:362:730:772| 0)
                            (= (+ (- |phi_main__t:352:357:725:767|)
                                    |main__t':147:385:618:756|) 0)
                            (= (+ (- |phi_main____CPAchecker_TMP_4:351:358:726:768|)
                                    |main____CPAchecker_TMP_4':364:389:622:760|) 0)
                            (= (+ (- |phi___VERIFIER_assert__cond___3:350:359:727:769|)
                                    |__VERIFIER_assert__cond___3':365:388:621:759|) 0)
                            (= (+ (- |phi___VERIFIER_assert__cond___4:349:360:728:770|)
                                    |__VERIFIER_assert__cond___4':366:387:620:758|) 0)
                            (= (+ |havoc:29:65:362:730:772|
                                    (- |phi_main____CPAchecker_TMP_6:348:361:729:771|)) 0)))
               (= (ite (<= (- |phi_main__t:352:357:725:767|) 0) 1 0) 0)))
(check-sat)
